54981
11, 25, 31, 27, 1, 33, 42, 45, 2, 14, 9, 34, 12, 18, 30, 4, 47, 54, 26, 49, 55, 28, 6, 3, 43, 13, 51, 40, 7, 37, 5, 35, 24, 20, 50, 38, 44, 8, 32, 41, 19, 48, 17, 23, 53, 21, 29, 22, 10, 16, 39, 36, 46, 15, 52
